% demand
num_movements = 51;
loading_factor = [1200, 1150, 1550, 850, 1000, 800, 1850, 900, 800, 800, 1250, 1250, 1800, 1400, 1950, 1000, 1900, 1450, 1800, 1550, 1650, 850, 800, 1250, 1600, 1250, 1150, 1600, 1000, 1450, 1250, 1400, 1300, 1750, 1900, 1700, 1350, 1450, 2000, 1450, 1100, 1800, 1250, 1700, 1000, 1250, 1250, 850, 1950, 1100, 850];
pickup_time = [0, 0, 0, 0, 0, 0, 0, 0, 0, 0, 1, 1, 1, 1, 1, 1, 2, 2, 2, 2, 2, 2, 2, 3, 3, 4, 4, 4, 4, 4, 5, 5, 5, 6, 6, 6, 7, 7, 7, 7, 7, 7, 7, 9, 9, 9, 9, 9, 9, 10, 11];
delivery_time = [1, 1, 2, 1, 1, 1, 1, 1, 1, 3, 2, 2, 2, 2, 2, 2, 3, 3, 3, 3, 3, 3, 3, 6, 4, 6, 5, 7, 7, 7, 6, 6, 7, 7, 7, 7, 8, 9, 8, 9, 8, 8, 11, 11, 11, 11, 12, 11, 11, 12, 12];

% transporter definition
total_capacity = 11000;
num_decks = 4;
capacity = [3000, 3000, 1000, 4000];

% ways out of decks
num_ways_out = 2;
paths_out = array3d(decks, ways_out, decks, [
% ways out of deck d1
2, 4, 0, 0, 3, 4, 0, 0, 

% ways out of deck d2
4, 0, 0, 0, 0, 0, 0, 0,	

% ways out of deck d3
4, 0, 0, 0, 0, 0, 0, 0,	

% ways out of deck d4
0, 0, 0, 0,	0, 0, 0, 0,	

]);

